c ---- [ banner ] ------------------------------------------------------------
c
c Kissat SAT Solver
c 
c Copyright (c) 2021-2024 Armin Biere University of Freiburg
c Copyright (c) 2019-2021 Armin Biere Johannes Kepler University Linz
c 
c Version 4.0.1 43f02cf3e992cb44653b35e5cb26f93281552ae0
c gcc (Ubuntu 13.2.0-23ubuntu4) 13.2.0 -W -Wall -O3 -DNDEBUG
c Thu Sep 12 12:27:46 CEST 2024 Linux abryzen9 6.8.0-41-generic x86_64
c
c ---- [ parsing ] -----------------------------------------------------------
c
c opened and reading DIMACS file:
c
c   /data/artifact/AMulet2.0_artifact/exp4/cnf_dc2_64/64_64_U_SP_DT_LF_GenMul_dc2.cnf
c
c parsed 'p cnf 28996 127996' header
c closing input after reading 2560564 bytes (2 MB)
c finished parsing after 0.03 seconds
c
c ---- [ options ] -----------------------------------------------------------
c
c --stable=0                       (different from default '1')
c
c ---- [ solving ] -----------------------------------------------------------
c
c  seconds switched rate     size/glue tier1  binary           remaining
c         MB reductions conflicts size  tier2     irredundant
c          level restarts redundant glue  trail           variables
c
c *  0.03 10 0 0 0  0 0   0   0 0.0 0 0 0 0 0% 11040 116954 28993 100%
c (  0.06 12 0 0 0  0 0   0   0 0.0 0 0 0 0 0% 11040 116954 28993 100%
c .  0.07 12 0 0 0  0 0   0   0 0.0 0 0 0 0 0% 11036 116954 28993 100%
c c  0.16 17 0 0 0  0 0   0   0 0.0 0 0 0 0 0% 17616 103794 25703 89%
c d  0.17 17 0 0 0  0 0   0   0 0.0 0 0 0 0 0% 11036 103794 25703 89%
c =  0.23 17 0 0 0  0 0   0   0 0.0 0 0 0 0 0% 11600 103792 25421 88%
c d  0.23 17 0 0 0  0 0   0   0 0.0 0 0 0 0 0% 11036 103792 25421 88%
c f  0.35 17 0 0 0  0 0   0   0 0.0 0 0 0 0 0% 15836 96266 28088 97%
c e  0.54 25 0 0 0  0 0   0   0 0.0 0 0 0 0 0% 9641 104200 19234 66%
c )  0.54 25 0 0 0  0 0   0   0 0.0 0 0 0 0 0% 9641 104200 19234 66%
c {  0.56 25 0 0 0  0 0   0   0 0.0 0 0 2 6 0% 9641 104200 19234 66%
c -  0.84 27 142 0 1 216 29 1000 732 2.9 18 6 4 11 27% 9674 104200 19234 66%
c -  1.05 27 252 0 2 333 30 2001 1333 3.1 18 6 3 11 23% 9735 104200 19234 66%
c c  1.13 21 215 0 2 333 25 2502 1561 2.8 16 6 3 9 20% 9847 103699 19155 66%
c d  1.14 21 215 0 2 333 25 2502 1453 2.8 16 6 3 9 20% 9689 103699 19155 66%
c u  1.16 21 215 0 2 333 25 2502 1167 2.8 16 6 3 9 20% 9696 103699 19155 66%
c v  1.18 21 215 0 2 333 25 2502 925 2.8 16 6 3 9 20% 9696 103699 19155 66%
c w  1.19 21 215 0 2 333 25 2502 923 2.8 16 6 3 9 20% 9696 103699 19155 66%
c x  1.21 21 215 0 2 333 25 2502 923 2.8 16 6 3 9 20% 9696 103643 19155 66%
c =  1.27 21 215 0 2 333 25 2502 923 2.8 16 6 3 9 20% 9968 103643 19019 66%
c
c  seconds   switched   rate      size/glue tier1    binary          remaining
c         MB  reductions conflicts      size  tier2     irredundant
c           level restarts    redundant   glue   trail          variables
c
c d  1.28 21 215 0 2 333 25 2502 919 2.8 16 6 3 9 20% 9691 103643 19019 66%
c f  1.31 21 215 0 2 333 25 2502 919 2.8 16 6 3 9 20% 10212 102601 19540 67%
c u  1.40 22 215 0 2 333 25 2502 897 2.8 16 6 3 9 20% 10212 102601 19540 67%
c v  1.41 22 215 0 2 333 25 2502 856 2.8 16 6 3 9 20% 10212 102601 19540 67%
c =  1.47 22 215 0 2 333 25 2502 856 2.8 16 6 3 9 20% 10270 102601 19511 67%
c d  1.48 22 215 0 2 333 25 2502 855 2.8 16 6 3 9 20% 10211 102601 19511 67%
c f  1.52 22 215 0 2 333 25 2502 855 2.8 16 6 3 9 20% 10227 102577 19519 67%
c -  1.95 27 204 0 3 578 32 3415 1419 3.6 22 6 3 9 23% 10240 102577 19519 67%
c -  2.42 27 231 0 4 814 33 5147 2500 3.9 25 6 3 10 23% 10296 102577 19519 67%
c -  3.24 27 269 0 5 1105 36 7148 3662 4.4 36 8 3 11 26% 10346 102577 19519 67%
c d  3.43 27 266 0 5 1143 36 7705 4109 4.5 37 8 3 11 27% 10311 102577 19492 67%
c u  3.47 27 266 0 5 1143 36 7705 3497 4.5 37 8 3 11 27% 10325 102577 19492 67%
c v  3.51 27 266 0 5 1143 36 7705 3158 4.5 37 8 3 11 27% 10325 102577 19492 67%
c w  3.57 27 266 0 5 1143 36 7705 3154 4.5 37 8 3 11 27% 10325 102577 19492 67%
c x  3.61 27 266 0 5 1143 36 7705 3154 4.5 37 8 3 11 27% 10325 102144 19492 67%
c =  3.80 27 266 0 5 1143 36 7705 3154 4.5 37 8 3 11 27% 11585 102144 18862 65%
c d  3.81 27 266 0 5 1143 36 7705 3118 4.5 37 8 3 11 27% 10165 102144 18862 65%
c t  3.83 27 266 0 5 1143 36 7705 3118 4.5 37 8 3 11 27% 10161 102144 18862 65%
c f  3.88 27 266 0 5 1143 36 7705 3118 4.5 37 8 3 11 27% 11127 100687 19345 67%
c u  3.97 27 266 0 5 1143 36 7705 2984 4.5 37 8 3 11 27% 11128 100687 19345 67%
c
c  seconds   switched    rate       size/glue tier1     binary           remaining
c         MB  reductions  conflicts       size  tier2       irredundant
c           level  restarts    redundant    glue    trail           variables
c
c v  4.00 27 266 0 5 1143 36 7705 2903 4.5 37 8 3 11 27% 11128 100687 19345 67%
c w  4.08 27 266 0 5 1143 36 7705 2893 4.5 37 8 3 11 27% 11128 100687 19345 67%
c x  4.12 27 266 0 5 1143 36 7705 2893 4.5 37 8 3 11 27% 11128 99965 19345 67%
c =  4.29 27 266 0 5 1143 36 7705 2893 4.5 37 8 3 11 27% 12388 99965 18715 65%
c d  4.30 27 266 0 5 1143 36 7705 2865 4.5 37 8 3 11 27% 10950 99965 18715 65%
c t  4.32 27 266 0 5 1143 36 7705 2865 4.5 37 8 3 11 27% 10849 99965 18715 65%
c f  4.38 27 266 0 5 1143 36 7705 2865 4.5 37 8 3 11 27% 12885 96889 19735 68%
c -  4.94 27 254 0 6 1279 34 9384 3771 4.4 38 8 3 10 28% 12908 96889 19735 68%
c o  5.19 27 274 0 6 1342 33 10291 4553 4.6 39 8 3 10 28% 12930 96889 19735 68%
c -  5.68 27 275 0 7 1484 33 11833 5042 4.5 40 9 2 10 29% 12945 96889 19735 68%
c s  5.95 29 267 0 7 1544 32 12507 5663 4.4 40 9 2 10 29% 12956 90410 19735 68%
c e  6.06 29 267 0 7 1544 32 12507 5663 4.4 40 9 2 10 29% 12115 90987 19208 66%
c s  6.06 29 267 0 7 1544 32 12507 5663 4.4 40 9 2 10 29% 12116 90610 19208 66%
c e  6.07 29 267 0 7 1544 32 12507 5663 4.4 40 9 2 10 29% 12104 90622 19204 66%
c ^  6.07 29 267 0 7 1544 32 12507 5663 4.4 40 9 2 10 29% 12104 90622 19204 66%
c -  6.69 29 283 0 8 1712 33 14478 6038 4.5 43 10 2 10 29% 12162 90622 19204 66%
c d  6.85 29 292 0 8 1744 31 15783 7121 4.4 41 9 2 10 28% 11722 90622 18921 65%
c u  6.90 29 292 0 8 1744 31 15783 6442 4.4 41 9 2 10 28% 11728 90622 18921 65%
c v  6.96 29 292 0 8 1744 31 15783 5460 4.4 41 9 2 10 28% 11730 90622 18921 65%
c w  7.01 29 292 0 8 1744 31 15783 5455 4.4 41 9 2 10 28% 11730 90622 18921 65%
c
c  seconds   switched    rate        size/glue tier1     binary          remaining
c         MB  reductions   conflicts       size  tier2       irredundant
c           level  restarts     redundant    glue    trail          variables
c
c x  7.06 29 292 0 8 1744 31 15783 5455 4.4 41 9 2 10 28% 11751 89759 18921 65%
c =  7.28 29 292 0 8 1744 31 15783 5455 4.4 41 9 2 10 28% 12119 89755 18737 65%
c d  7.29 29 292 0 8 1744 31 15783 5419 4.4 41 9 2 10 28% 11681 89755 18737 65%
c t  7.31 29 292 0 8 1744 31 15783 5419 4.4 41 9 2 10 28% 11626 89755 18737 65%
c f  7.35 29 292 0 8 1744 31 15783 5419 4.4 41 9 2 10 28% 11716 89574 18782 65%
c u  7.40 29 292 0 8 1744 31 15783 5282 4.4 41 9 2 10 28% 11720 89574 18782 65%
c v  7.44 29 292 0 8 1744 31 15783 5143 4.4 41 9 2 10 28% 11720 89574 18782 65%
c w  7.52 29 292 0 8 1744 31 15783 5124 4.4 41 9 2 10 28% 11720 89574 18782 65%
c x  7.56 29 292 0 8 1744 31 15783 5124 4.4 41 9 2 10 28% 11720 88987 18782 65%
c =  7.79 29 292 0 8 1744 31 15783 5124 4.4 41 9 2 10 28% 15450 88987 16917 58%
c d  7.80 29 292 0 8 1744 31 15783 4971 4.4 41 9 2 10 28% 10139 88987 16917 58%
c t  7.83 29 292 0 8 1744 31 15783 4971 4.4 41 9 2 10 28% 10138 88987 16917 58%
c -  8.24 29 289 0 9 1842 31 17306 5421 4.5 41 9 2 10 29% 10170 88987 16917 58%
c -  8.73 29 285 0 10 1957 29 20306 7008 4.3 39 9 2 10 29% 10224 88987 16917 58%
c o  8.74 29 285 0 10 1958 29 20352 7053 4.3 39 9 2 10 29% 10224 88987 16917 58%
c -  9.15 29 290 0 11 2054 27 23470 8535 4.2 37 9 2 10 28% 10274 88987 16917 58%
c s  9.26 29 290 0 11 2083 26 25007 9829 4.1 35 9 2 10 28% 10295 83861 16917 58%
c e  9.36 29 290 0 11 2083 26 25007 9829 4.1 35 9 2 10 28% 8840 85766 16075 55%
c s  9.37 29 290 0 11 2083 26 25007 9829 4.1 35 9 2 10 28% 8846 85410 16075 55%
c e  9.37 29 290 0 11 2083 26 25007 9829 4.1 35 9 2 10 28% 8838 85406 16070 55%
c
c  seconds   switched     rate        size/glue tier1     binary         remaining
c         MB   reductions   conflicts       size  tier2      irredundant
c           level   restarts     redundant    glue    trail         variables
c
c ^  9.37 29 290 0 11 2083 26 25007 9829 4.1 35 9 2 10 28% 8838 85406 16070 55%
c -  9.75 29 292 0 12 2209 26 26786 9551 4.1 35 8 2 9 28% 8849 85406 16070 55%
c c  9.84 29 292 0 12 2225 26 26909 9666 4.1 35 8 2 9 28% 8894 85152 16037 55%
c d  9.85 29 292 0 12 2225 26 26909 9613 4.1 35 8 2 9 28% 8803 85152 16022 55%
c u  9.89 29 292 0 12 2225 26 26909 8410 4.1 35 8 2 9 28% 8814 85152 16022 55%
c v  9.94 29 292 0 12 2225 26 26909 7454 4.1 35 8 2 9 28% 8814 85152 16022 55%
c w  9.97 29 292 0 12 2225 26 26909 7451 4.1 35 8 2 9 28% 8814 85152 16022 55%
c x 10.01 29 292 0 12 2225 26 26909 7449 4.1 35 8 2 9 28% 8815 84853 16022 55%
c = 10.21 29 292 0 12 2225 26 26909 7449 4.1 35 8 2 9 28% 10813 84803 15018 52%
c d 10.21 29 292 0 12 2225 26 26909 7336 4.1 35 8 2 9 28% 8754 84803 15018 52%
c t 10.23 29 292 0 12 2225 26 26909 7336 4.1 35 8 2 9 28% 8747 84803 15018 52%
c f 10.27 29 292 0 12 2225 26 26909 7336 4.1 35 8 2 9 28% 8787 84676 15041 52%
c u 10.32 29 292 0 12 2225 26 26909 7096 4.1 35 8 2 9 28% 8788 84676 15041 52%
c v 10.35 29 292 0 12 2225 26 26909 6965 4.1 35 8 2 9 28% 8788 84676 15041 52%
c w 10.38 29 292 0 12 2225 26 26909 6963 4.1 35 8 2 9 28% 8788 84676 15041 52%
c x 10.44 29 292 0 12 2225 26 26909 6963 4.1 35 8 2 9 28% 8788 80541 15041 52%
c = 10.61 29 292 0 12 2225 26 26909 6963 4.1 35 8 2 9 28% 9484 80541 14693 51%
c d 10.62 29 292 0 12 2225 26 26909 6950 4.1 35 8 2 9 28% 8774 80541 14692 51%
c - 10.79 29 281 0 13 2269 24 30250 8776 4.0 32 8 2 7 25% 8787 80541 14692 51%
c - 11.50 29 267 0 14 2536 24 33855 10609 3.9 32 8 2 7 25% 8841 80537 14692 51%
c
c  seconds   switched     rate         size/glue tier1    binary         remaining
c         MB   reductions   conflicts        size  tier2     irredundant
c           level   restarts      redundant    glue   trail         variables
c
c - 12.24 29 263 0 15 2797 24 37597 12081 3.9 32 8 2 7 25% 8891 80537 14692 51%
c o 12.59 29 253 0 15 2924 23 40376 14446 3.9 31 8 2 7 25% 8927 80537 14692 51%
c c 12.93 29 251 0 15 3051 23 41241 15218 3.9 31 8 2 7 25% 9010 79967 14594 50%
c d 12.93 29 251 0 15 3051 23 41241 14791 3.9 31 8 2 7 25% 8814 79967 14594 50%
c u 13.00 29 251 0 15 3051 23 41241 12762 3.9 31 8 2 7 25% 8835 79967 14594 50%
c v 13.05 29 251 0 15 3051 23 41241 12104 3.9 31 8 2 7 25% 8835 79967 14594 50%
c w 13.09 29 251 0 15 3051 23 41241 12044 3.9 31 8 2 7 25% 8835 79967 14594 50%
c x 13.15 29 251 0 15 3051 23 41241 12043 3.9 31 8 2 7 25% 8837 77657 14594 50%
c = 13.32 29 251 0 15 3051 23 41241 12043 3.9 31 8 2 7 25% 8859 77657 14583 50%
c d 13.32 29 251 0 15 3051 23 41241 12029 3.9 31 8 2 7 25% 8834 77657 14582 50%
c c 13.39 29 251 0 15 3051 23 41241 12029 3.9 31 8 2 7 25% 8836 77649 14581 50%
c d 13.39 29 251 0 15 3051 23 41241 12027 3.9 31 8 2 7 25% 8834 77649 14581 50%
c u 13.42 29 251 0 15 3051 23 41241 11625 3.9 31 8 2 7 25% 8835 77649 14581 50%
c v 13.46 29 251 0 15 3051 23 41241 10761 3.9 31 8 2 7 25% 8839 77649 14581 50%
c w 13.48 29 251 0 15 3051 23 41241 10761 3.9 31 8 2 7 25% 8839 77649 14581 50%
c x 13.52 29 251 0 15 3051 23 41241 10761 3.9 31 8 2 7 25% 8841 76130 14581 50%
c d 13.65 29 251 0 15 3051 23 41241 10751 3.9 31 8 2 7 25% 8835 76130 14578 50%
c - 13.70 29 251 0 16 3063 23 41471 9573 3.9 31 8 2 7 25% 8837 76130 14578 50%
c - 13.82 29 233 0 17 3114 21 45474 11474 3.8 30 8 2 6 23% 8845 76130 14578 50%
c - 14.30 29 229 0 18 3415 21 49597 13436 3.7 29 8 2 6 23% 8910 76130 14578 50%
c
c  seconds   switched     rate         size/glue tier1    binary         remaining
c         MB   reductions   conflicts        size  tier2     irredundant
c           level   restarts      redundant    glue   trail         variables
c
c s 14.59 29 229 0 18 3595 22 52110 15570 3.7 29 8 2 6 24% 8965 74754 14578 50%
c e 14.65 29 229 0 18 3595 22 52110 15570 3.7 29 8 2 6 24% 8586 75247 14280 49%
c s 14.65 29 229 0 18 3595 22 52110 15570 3.7 29 8 2 6 24% 8587 75042 14280 49%
c e 14.66 29 229 0 18 3595 22 52110 15570 3.7 29 8 2 6 24% 8584 75054 14275 49%
c ^ 14.66 29 229 0 18 3595 22 52110 15570 3.7 29 8 2 6 24% 8584 75054 14275 49%
c - 14.85 29 233 0 19 3699 22 53839 14023 3.7 29 8 2 6 24% 8618 75054 14275 49%
c - 15.31 29 228 0 20 4002 21 58205 15473 3.7 29 8 2 6 23% 8709 75054 14275 49%
c d 15.32 29 226 0 20 4002 21 58883 15893 3.7 29 8 2 6 23% 8613 75054 14224 49%
c u 15.37 29 226 0 20 4002 21 58883 13451 3.7 29 8 2 6 23% 8676 75054 14224 49%
c v 15.41 29 226 0 20 4002 21 58883 12424 3.7 29 8 2 6 23% 8685 75054 14224 49%
c w 15.41 29 226 0 20 4002 21 58883 12382 3.7 29 8 2 6 23% 8685 75054 14224 49%
c x 15.46 29 226 0 20 4002 21 58883 12382 3.7 29 8 2 6 23% 8686 74842 14224 49%
c d 15.46 29 226 0 20 4002 21 58883 12314 3.7 29 8 2 6 23% 8610 74842 14186 49%
c t 15.47 29 226 0 20 4002 21 58883 12314 3.7 29 8 2 6 23% 8602 74842 14186 49%
c f 15.49 29 226 0 20 4002 21 58883 12314 3.7 29 8 2 6 23% 8602 74818 14190 49%
c c 15.52 29 226 0 20 4002 21 58883 12094 3.7 29 8 2 6 23% 8711 74254 14121 49%
c d 15.53 29 226 0 20 4002 21 58883 12094 3.7 29 8 2 6 23% 8573 74254 14121 49%
c u 15.56 29 226 0 20 4002 21 58883 11363 3.7 29 8 2 6 23% 8603 74254 14121 49%
c v 15.59 29 226 0 20 4002 21 58883 10676 3.7 29 8 2 6 23% 8606 74254 14121 49%
c w 15.60 29 226 0 20 4002 21 58883 10661 3.7 29 8 2 6 23% 8606 74254 14121 49%
c
c  seconds   switched     rate         size/glue tier1    binary         remaining
c         MB   reductions   conflicts        size  tier2     irredundant
c           level   restarts      redundant    glue   trail         variables
c
c x 15.67 29 226 0 20 4002 21 58883 10660 3.7 29 8 2 6 23% 8606 73296 14121 49%
c = 15.83 29 226 0 20 4002 21 58883 10660 3.7 29 8 2 6 23% 9352 73296 13748 47%
c d 15.84 29 226 0 20 4002 21 58883 10523 3.7 29 8 2 6 23% 8571 73296 13738 47%
c t 15.85 29 226 0 20 4002 21 58883 10523 3.7 29 8 2 6 23% 8567 73296 13738 47%
c - 16.39 29 225 0 21 4303 21 62677 12451 3.6 28 8 2 6 23% 8618 73296 13738 47%
c - 17.06 29 223 0 22 4779 22 67259 14727 3.6 29 8 2 6 24% 8693 73296 13738 47%
c o 17.39 29 224 0 22 4996 21 70381 17424 3.6 29 8 2 6 24% 8750 73296 13738 47%
c - 17.57 29 223 0 23 5102 21 71951 16442 3.6 29 8 2 6 24% 8801 73296 13738 47%
c - 18.31 29 220 0 24 5612 22 76746 18089 3.6 29 8 2 6 24% 8858 73296 13738 47%
c c 18.89 29 217 0 24 5987 22 79962 20926 3.6 29 8 2 6 25% 9017 72082 13512 47%
c d 18.89 29 217 0 24 5987 22 79962 20202 3.6 29 8 2 6 25% 8565 72082 13512 47%
c u 18.95 29 217 0 24 5987 22 79962 16915 3.6 29 8 2 6 25% 8608 72082 13512 47%
c v 19.02 29 217 0 24 5987 22 79962 15014 3.6 29 8 2 6 25% 8612 72082 13512 47%
c w 19.08 29 217 0 24 5987 22 79962 15014 3.6 29 8 2 6 25% 8612 72082 13512 47%
c x 19.15 29 217 0 24 5987 22 79962 15014 3.6 29 8 2 6 25% 8615 71548 13512 47%
c = 19.39 29 217 0 24 5987 22 79962 15014 3.6 29 8 2 6 25% 9511 71548 13064 45%
c d 19.39 29 217 0 24 5987 22 79962 14442 3.6 29 8 2 6 25% 8508 71548 13059 45%
c t 19.40 29 217 0 24 5987 22 79962 14442 3.6 29 8 2 6 25% 8499 71548 13059 45%
c c 19.45 29 217 0 24 5987 22 79962 14442 3.6 29 8 2 6 25% 8507 71508 13054 45%
c d 19.46 29 217 0 24 5987 22 79962 14434 3.6 29 8 2 6 25% 8497 71508 13054 45%
c
c  seconds   switched     rate         size/glue tier1    binary         remaining
c         MB   reductions   conflicts        size  tier2     irredundant
c           level   restarts      redundant    glue   trail         variables
c
c u 19.50 29 217 0 24 5987 22 79962 13535 3.6 29 8 2 6 25% 8504 71508 13054 45%
c v 19.54 29 217 0 24 5987 22 79962 13177 3.6 29 8 2 6 25% 8504 71508 13054 45%
c w 19.66 29 217 0 24 5987 22 79962 13164 3.6 29 8 2 6 25% 8504 71508 13054 45%
c x 19.75 29 217 0 24 5987 22 79962 13163 3.6 29 8 2 6 25% 8506 66447 13054 45%
c = 20.09 29 217 0 24 5987 22 79962 13163 3.6 29 8 2 6 25% 9226 66447 12694 44%
c d 20.09 29 217 0 24 5987 22 79962 12874 3.6 29 8 2 6 25% 8464 66447 12694 44%
c t 20.10 29 217 0 24 5987 22 79962 12874 3.6 29 8 2 6 25% 8463 66447 12694 44%
c - 20.33 29 216 0 25 6135 22 81644 12698 3.6 29 8 2 6 25% 8470 66447 12694 44%
c - 20.75 29 217 0 26 6451 22 86646 15035 3.6 29 8 2 6 25% 8484 66447 12694 44%
c - 21.19 29 216 0 27 6765 21 91747 17167 3.5 28 8 2 6 24% 8516 66447 12694 44%
c s 21.63 29 214 0 27 7081 21 95809 20674 3.5 28 8 2 6 25% 8540 64235 12694 44%
c e 21.70 29 214 0 27 7081 21 95809 20674 3.5 28 8 2 6 25% 5637 71277 11239 39%
c s 21.71 29 214 0 27 7081 21 95809 20674 3.5 28 8 2 6 25% 5638 71095 11239 39%
c e 21.72 29 214 0 27 7081 21 95809 20674 3.5 28 8 2 6 25% 5636 71157 11209 39%
c ^ 21.72 29 214 0 27 7081 21 95809 20674 3.5 28 8 2 6 25% 5636 71157 11209 39%
c - 21.86 29 213 0 28 7164 21 96943 15419 3.5 28 8 2 6 25% 5647 71157 11209 39%
c - 22.44 29 207 0 29 7628 21 102236 17867 3.4 28 8 2 6 25% 5678 71157 11209 39%
c d 22.90 29 205 0 29 7997 21 104632 19916 3.4 28 8 2 6 25% 5659 71157 11189 39%
c u 22.95 29 205 0 29 7997 21 104632 16443 3.4 28 8 2 6 25% 5685 71157 11189 39%
c v 23.01 29 205 0 29 7997 21 104632 14471 3.4 28 8 2 6 25% 5683 71157 11189 39%
c
c  seconds   switched     rate          size/glue tier1    binary         remaining
c         MB   reductions   conflicts         size  tier2     irredundant
c           level   restarts       redundant    glue   trail         variables
c
c w 23.06 29 205 0 29 7997 21 104632 14466 3.4 28 8 2 6 25% 5683 71157 11189 39%
c x 23.11 29 205 0 29 7997 21 104632 14459 3.4 28 8 2 6 25% 5683 71147 11189 39%
c = 23.42 29 205 0 29 7997 21 104632 14459 3.4 28 8 2 6 25% 5779 71147 11141 38%
c d 23.42 29 205 0 29 7997 21 104632 14328 3.4 28 8 2 6 25% 5664 71147 11132 38%
c t 23.43 29 205 0 29 7997 21 104632 14328 3.4 28 8 2 6 25% 5651 71147 11132 38%
c f 23.47 29 205 0 29 7997 21 104632 14328 3.4 28 8 2 6 25% 5649 71120 11135 38%
c c 23.50 29 205 0 29 7997 21 104632 14260 3.4 28 8 2 6 25% 5673 70906 11113 38%
c d 23.51 29 205 0 29 7997 21 104632 14260 3.4 28 8 2 6 25% 5633 70906 11113 38%
c u 23.55 29 205 0 29 7997 21 104632 13506 3.4 28 8 2 6 25% 5636 70906 11113 38%
c v 23.58 29 205 0 29 7997 21 104632 13052 3.4 28 8 2 6 25% 5636 70906 11113 38%
c w 23.74 29 205 0 29 7997 21 104632 12861 3.4 28 8 2 6 25% 5636 70906 11113 38%
c = 24.05 29 205 0 29 7997 21 104632 12861 3.4 28 8 2 6 25% 5642 70906 11110 38%
c d 24.05 29 205 0 29 7997 21 104632 12856 3.4 28 8 2 6 25% 5630 70906 11108 38%
c i 24.25 29 203 0 29 8125 21 106881 14837 3.3 27 8 2 6 25% 5647 70906 11107 38%
c - 24.34 29 202 0 30 8190 21 107622 12504 3.3 27 8 1 6 25% 5647 70906 11107 38%
c o 24.69 29 202 0 30 8495 21 110425 14966 3.3 27 8 1 6 26% 5661 70906 11107 38%
c i 25.01 29 200 0 30 8781 21 112297 16724 3.3 27 8 1 6 26% 5669 70906 11104 38%
c i 25.03 29 200 0 30 8801 21 112516 16920 3.3 27 8 1 6 26% 5675 70906 11103 38%
c - 25.13 29 200 0 31 8866 21 113101 14460 3.3 27 8 1 6 26% 5675 70906 11103 38%
c i 25.16 29 199 0 31 8892 21 113306 14632 3.3 27 8 1 6 26% 5680 70906 11102 38%
c
c  seconds   switched     rate          size/glue tier1    binary         remaining
c         MB   reductions   conflicts         size  tier2     irredundant
c           level   restarts       redundant    glue   trail         variables
c
c i 25.16 29 199 0 31 8892 21 113319 14636 3.3 27 8 1 6 26% 5682 70906 11101 38%
c i 25.16 29 199 0 31 8892 21 113333 14641 3.3 27 8 1 6 26% 5684 70906 11094 38%
c i 25.16 29 199 0 31 8892 21 113338 14642 3.3 27 8 1 6 26% 5686 70906 11093 38%
c i 25.23 29 199 0 31 8942 21 113726 14989 3.3 27 8 1 6 26% 5690 70906 11092 38%
c i 25.25 29 199 0 31 8958 21 113950 15181 3.3 27 8 1 6 26% 5695 70906 11091 38%
c i 25.39 29 198 0 31 9066 21 114813 15989 3.3 27 8 1 6 26% 5699 70906 11090 38%
c i 25.53 29 197 0 31 9169 21 115963 17014 3.3 27 8 1 6 26% 5707 70906 11089 38%
c - 25.84 29 195 0 32 9369 21 118668 15670 3.2 27 8 1 6 26% 5720 70906 11089 38%
c i 25.85 29 195 0 32 9376 21 118830 15812 3.2 27 8 1 6 26% 5725 70906 11086 38%
c i 25.95 29 194 0 32 9445 21 119462 16399 3.2 27 8 1 6 26% 5729 70906 11085 38%
c i 26.00 29 194 0 32 9476 21 119787 16707 3.2 27 8 1 6 27% 5730 70906 11084 38%
c i 26.00 29 194 0 32 9476 21 119811 16716 3.2 27 8 1 6 27% 5733 70906 11083 38%
c i 26.02 29 194 0 32 9488 21 119995 16873 3.2 27 8 1 6 27% 5735 70906 11082 38%
c i 26.07 29 193 0 32 9524 21 120273 17128 3.2 27 8 1 6 27% 5738 70906 11076 38%
c i 26.08 29 193 0 32 9525 21 120298 17139 3.2 27 8 1 6 27% 5742 70906 11075 38%
c i 26.11 29 193 0 32 9536 21 120460 17279 3.2 27 8 1 6 27% 5747 70906 11074 38%
c i 26.11 29 193 0 32 9537 21 120653 17442 3.2 27 8 1 6 27% 5752 70906 11073 38%
c i 26.17 29 192 0 32 9610 21 121545 18232 3.2 26 8 1 6 26% 5758 70906 11070 38%
c i 26.18 29 191 0 32 9624 21 121674 18340 3.2 26 8 1 6 26% 5761 70906 11069 38%
c i 26.18 29 191 0 32 9625 21 121723 18374 3.2 26 8 1 6 26% 5763 70906 11067 38%
c
c  seconds   switched     rate          size/glue tier1    binary         remaining
c         MB   reductions   conflicts         size  tier2     irredundant
c           level   restarts       redundant    glue   trail         variables
c
c i 26.24 29 190 0 32 9728 20 122735 19278 3.2 26 8 1 6 26% 5771 70906 11066 38%
c i 26.30 29 188 0 32 9799 20 123629 20088 3.1 26 8 1 6 26% 5776 70906 11062 38%
c i 26.31 29 187 0 32 9802 20 124040 20404 3.1 26 8 1 6 26% 5782 70906 11059 38%
c i 26.31 29 187 0 32 9802 20 124113 20457 3.1 26 8 1 6 26% 5785 70906 11058 38%
c i 26.31 29 187 0 32 9802 20 124144 20481 3.1 26 8 1 6 26% 5790 70906 11056 38%
c } 26.31 29 187 0 32 9802 20 124151 20482 3.1 26 8 1 6 26% 5792 70905 11048 38%
c 0 26.31 29 187 0 32 9802 20 124151 20482 3.1 26 8 1 6 26% 5792 70905 11048 38%
c
c ---- [ result ] ------------------------------------------------------------
c
s UNSATISFIABLE
c
c ---- [ profiling ] ---------------------------------------------------------
c
c          18.18   69.11 %  search
c          18.18   69.11 %  focused
c           7.57   28.76 %  simplify
c           7.39   28.10 %  probe
c           3.02   11.48 %  sweep
c           2.68   10.18 %  vivify
c           0.58    2.20 %  factor
c           0.54    2.03 %  congruence
c           0.48    1.83 %  preprocess
c           0.46    1.75 %  eliminate
c           0.42    1.60 %  substitute
c           0.18    0.69 %  fastel
c           0.15    0.59 %  reduce
c           0.11    0.42 %  transitive
c           0.08    0.30 %  subsume
c           0.05    0.19 %  backbone
c           0.05    0.18 %  lucky
c           0.03    0.13 %  parse
c =============================================
c          26.31  100.00 %  total
c
c ---- [ statistics ] --------------------------------------------------------
c
c chronological:                         4317                3 %  conflicts
c conflicts:                           124151             4718.79 per second
c congruent:                             3821               13 %  variables
c decisions:                          2439771               19.65 per conflict
c eliminated:                           12020               41 %  variables
c factored:                              4774               16 %  variables
c fast_eliminated:                       8854               74 %  eliminated
c fast_strengthened:                       24                6 %  per strengthened
c fast_subsumed:                           97                1 %  per subsumed
c iterations:                              29                0 %  variables
c propagations:                     106426259          4045102    per second
c reductions:                              32             3880    interval
c reordered:                                5            24830    interval
c restarts:                              9802               13    interval
c strengthened:                           436                0 %  checks
c substituted:                          10632               37 %  variables
c subsumed:                             16399                1 %  checks
c switched:                                 0                0    interval
c vivified:                             56572               12 %  checks
c
c ---- [ glue usage ] --------------------------------------------------------
c
c focused glue 1   used 156333 clauses 50.62% accumulated 50.62% tier1
c focused glue 2   used  70553 clauses 22.84% accumulated 73.46%
c focused glue 3-4 used  38264 clauses 12.39% accumulated 85.85%
c focused glue 5   used   9529 clauses  3.09% accumulated 88.94%
c focused glue 6   used   7106 clauses  2.30% accumulated 91.24% tier2
c
c ---- [ resources ] ---------------------------------------------------------
c
c maximum-resident-set-size:         30560256 bytes         29 MB
c process-time:                            26s              26.31 seconds
c
c ---- [ shutting down ] -----------------------------------------------------
c
c exit 20
